s td 143 12 154
b 1 1 2 15
b 2 13 14 28
b 3 127 141 142
b 4 140 153 154
b 5 2 3 15 16
b 6 12 13 27 28
b 7 3 4 18 33 48 63 78 91 106 121 136 151
b 8 4 5 18 33 48 63 78 91 106 121 136 151
b 9 5 18 20 33 48 63 78 91 106 121 136 151
b 10 5 20 33 35 48 63 78 91 106 121 136 151
b 11 5 20 35 48 50 63 78 91 106 121 136 151
b 12 5 20 35 50 63 65 78 91 106 121 136 151
b 13 5 20 35 50 65 78 91 93 106 121 136 151
b 14 5 20 35 50 65 78 80 93 106 121 136 151
b 15 5 20 35 50 65 80 93 106 108 121 136 151
b 16 5 20 35 50 65 80 93 108 121 123 136 151
b 17 5 20 35 50 65 80 93 95 108 123 136 151
b 18 5 20 35 50 65 80 95 108 110 123 136 151
b 19 5 20 35 50 65 80 95 110 123 136 138 151
b 20 5 20 35 50 65 80 95 110 123 125 138 151
b 21 5 20 35 50 65 80 95 110 125 126 138 151
b 22 5 7 20 35 50 65 80 95 110 125 126
b 23 5 6 7 20
b 24 7 20 22 35 50 65 80 95 110 125 126
b 25 7 22 35 37 50 65 80 95 110 125 126
b 26 7 22 37 50 52 65 80 95 110 125 126
b 27 7 22 37 52 65 67 80 95 110 125 126
b 28 7 22 37 52 67 80 82 95 110 125 126
b 29 7 22 37 52 67 82 95 97 110 125 126
b 30 7 22 37 52 67 82 97 98 110 125 126
b 31 7 22 37 52 67 82 84 97 98
b 32 7 22 37 52 67 69 82 84 97
b 33 7 22 37 52 54 67 69 82 84
b 34 7 22 37 39 52 54 67 69 84
b 35 7 22 24 37 39 52 54 69 84
b 36 7 11 22 24 37 39 54 69 84
b 37 7 9 11 22 24 37
b 38 7 8 9 22
b 39 9 10 11 24
b 40 9 22 23 24 37
b 41 11 24 26 39 54 69 84
b 42 11 26 39 41 54 69 84
b 43 11 26 41 42 54 69 84
b 44 11 26 27 41 42
b 45 11 12 26 27 42
b 46 12 27 28 42
b 47 41 42 54 56 69 84
b 48 41 54 55 56 69
b 49 56 69 70 84
b 50 26 39 40 41 54
b 51 11 24 25 26 39
b 52 24 37 38 39 52
b 53 39 52 53 54 67
b 54 54 67 68 69 82
b 55 69 82 83 84 97
b 56 97 98 110 111 125 126
b 57 98 111 112 126
b 58 82 95 96 97 110
b 59 67 80 81 82 95
b 60 52 65 66 67 80
b 61 37 50 51 52 65
b 62 22 35 36 37 50
b 63 7 20 21 22 35
b 64 125 126 138 151 153
b 65 125 126 138 139 153
b 66 138 151 152 153
b 67 110 123 124 125 138
b 68 123 136 137 138 151
b 69 95 108 109 110 123
b 70 80 93 94 95 108
b 71 108 121 122 123 136
b 72 93 106 107 108 121
b 73 65 78 79 80 93
b 74 78 91 92 93 106
b 75 50 63 64 65 78
b 76 35 48 49 50 63
b 77 20 33 34 35 48
b 78 5 18 19 20 33
b 79 3 18 33 48 63 76 78 91 106 121 136 151
b 80 3 18 33 48 61 63 76 91 106 121 136 151
b 81 3 18 33 46 48 61 76 91 106 121 136 151
b 82 3 18 33 46 61 76 91 106 121 136 149 151
b 83 3 18 33 46 61 76 91 106 121 134 136 149
b 84 3 18 33 46 61 76 91 106 119 121 134 149
b 85 3 18 33 46 61 76 91 104 106 119 134 149
b 86 3 18 33 46 61 76 89 91 104 119 134 149
b 87 3 18 33 46 61 74 76 89 104 119 134 149
b 88 3 18 33 46 59 61 74 89 104 119 134 149
b 89 3 18 31 33 46 59 74 89 104 119 134 149
b 90 3 18 31 44 46 59 74 89 104 119 134 149
b 91 3 18 31 43 44 59 74 89 104 119 134 149
b 92 3 18 29 31 43 44
b 93 3 16 18 29 31 44
b 94 3 15 16 29
b 95 3 16 17 18 31
b 96 16 29 30 31 44
b 97 43 44 59 74 89 104 119 134 147 149
b 98 43 44 59 74 89 104 119 132 134 147
b 99 43 44 59 74 89 104 117 119 132 147
b 100 43 44 59 74 89 102 104 117 132 147
b 101 43 44 59 74 87 89 102 117 132 147
b 102 43 44 59 72 74 87 102 117 132 147
b 103 43 44 58 59 72 87 102 117 132 147
b 104 43 58 72 85 87 102 117 132 147
b 105 43 58 71 72 85
b 106 43 57 58 71
b 107 72 85 87 100 102 117 132 147
b 108 72 85 86 87 100
b 109 85 87 100 102 115 117 132 147
b 110 85 100 102 115 117 130 132 147
b 111 85 100 115 117 130 132 143 147
b 112 85 100 113 115 130 143
b 113 85 99 100 113
b 114 100 113 115 128 130 143
b 115 100 113 114 115 128
b 116 115 128 129 130 143
b 117 113 128 142 143
b 118 117 130 132 143 145 147
b 119 117 130 131 132 145
b 120 130 143 144 145
b 121 132 145 146 147
b 122 102 115 116 117 130
b 123 87 100 101 102 115
b 124 59 72 73 74 87
b 125 74 87 88 89 102
b 126 89 102 103 104 117
b 127 104 117 118 119 132
b 128 119 132 133 134 147
b 129 134 147 148 149
b 130 31 44 45 46 59
b 131 18 31 32 33 46
b 132 46 59 60 61 74
b 133 61 74 75 76 89
b 134 76 89 90 91 104
b 135 91 104 105 106 119
b 136 106 119 120 121 134
b 137 121 134 135 136 149
b 138 136 149 150 151
b 139 33 46 47 48 61
b 140 48 61 62 63 76
b 141 63 76 77 78 91
b 142 113 127 128 142
b 143 126 139 140 153
1 5
2 6
3 142
4 143
5 94
6 46
7 8
7 79
8 9
9 10
9 78
10 11
10 77
11 12
11 76
12 13
12 75
13 14
13 74
14 15
14 73
15 16
15 72
16 17
16 71
17 18
17 70
18 19
18 69
19 20
19 68
20 21
20 67
21 22
21 64
22 23
22 24
24 25
24 63
25 26
25 62
26 27
26 61
27 28
27 60
28 29
28 59
29 30
29 58
30 31
30 56
31 32
32 33
32 55
33 34
33 54
34 35
34 53
35 36
35 52
36 37
36 41
37 38
37 39
37 40
41 42
41 51
42 43
42 50
43 44
43 47
44 45
45 46
47 48
47 49
56 57
64 65
64 66
65 143
79 80
79 141
80 81
80 140
81 82
81 139
82 83
82 138
83 84
83 137
84 85
84 136
85 86
85 135
86 87
86 134
87 88
87 133
88 89
88 132
89 90
89 131
90 91
90 130
91 92
91 97
92 93
93 94
93 95
93 96
97 98
97 129
98 99
98 128
99 100
99 127
100 101
100 126
101 102
101 125
102 103
102 124
103 104
104 105
104 107
105 106
107 108
107 109
109 110
109 123
110 111
110 122
111 112
111 118
112 113
112 114
114 115
114 116
114 117
117 142
118 119
118 120
118 121
